p edge 83
e 0 23
e 0 29
e 0 46
e 1 14
e 1 15
e 1 26
e 1 40
e 1 54
e 1 76
e 2 23
e 2 29
e 2 30
e 2 32
e 2 60
e 3 15
e 3 31
e 3 73
e 3 76
e 3 78
e 3 79
e 4 19
e 4 25
e 4 43
e 4 53
e 4 69
e 5 22
e 5 27
e 5 33
e 5 62
e 5 64
e 5 82
e 6 19
e 6 24
e 6 37
e 6 63
e 6 69
e 7 14
e 7 32
e 7 40
e 7 49
e 8 9
e 8 16
e 8 17
e 8 50
e 8 79
e 9 17
e 9 59
e 9 71
e 10 11
e 10 14
e 10 27
e 10 54
e 10 62
e 11 14
e 11 34
e 11 38
e 11 49
e 11 61
e 11 62
e 12 31
e 12 51
e 12 73
e 12 77
e 13 42
e 13 45
e 13 56
e 14 40
e 14 49
e 15 16
e 15 26
e 15 76
e 15 79
e 16 17
e 16 20
e 16 26
e 16 79
e 17 20
e 17 71
e 18 19
e 18 25
e 18 37
e 19 25
e 19 37
e 19 69
e 20 26
e 20 44
e 20 65
e 20 71
e 21 41
e 21 51
e 21 81
e 22 34
e 22 52
e 22 55
e 22 62
e 23 46
e 23 63
e 23 74
e 24 65
e 24 70
e 24 74
e 25 37
e 25 47
e 25 53
e 25 66
e 26 40
e 27 54
e 27 62
e 27 64
e 27 72
e 28 52
e 28 55
e 28 68
e 29 60
e 29 75
e 30 32
e 30 44
e 30 65
e 30 74
e 31 51
e 31 73
e 31 78
e 31 81
e 32 44
e 32 60
e 33 55
e 33 82
e 34 52
e 34 61
e 34 62
e 35 36
e 35 45
e 35 48
e 35 57
e 36 45
e 36 56
e 36 57
e 36 58
e 37 46
e 37 47
e 37 63
e 38 49
e 38 61
e 38 80
e 39 42
e 39 45
e 39 46
e 39 47
e 39 48
e 40 44
e 41 64
e 41 81
e 41 82
e 42 45
e 43 59
e 43 69
e 43 70
e 44 65
e 45 48
e 45 56
e 45 58
e 46 47
e 46 63
e 47 48
e 47 66
e 48 66
e 49 60
e 49 80
e 50 73
e 50 77
e 50 79
e 51 81
e 52 68
e 53 66
e 54 72
e 54 76
e 56 57
e 56 58
e 56 67
e 57 67
e 59 70
e 60 75
e 63 74
e 64 72
e 64 78
e 64 81
e 64 82
e 65 71
e 69 70
e 70 71
e 72 76
e 72 78
e 73 77
e 73 79
e 75 80
e 76 78
e 78 81
c k 13
